c cnf generated file for haplotype inference
c author: Fernando Augusto Fernandes Braz
c contact: fernando.afb@gmail.com
p cnf 132 498
2 3 0
-2 -3 0
37 -2 -61 0
-37 2 -61 0
37 3 67 0
-37 3 -67 0
41 -2 -62 0
-41 2 -62 0
41 3 68 0
-41 3 -68 0
45 -2 -63 0
-45 2 -63 0
45 3 69 0
-45 3 -69 0
49 -2 -64 0
-49 2 -64 0
49 3 70 0
-49 3 -70 0
53 -2 -65 0
-53 2 -65 0
53 3 71 0
-53 3 -71 0
57 -2 -66 0
-57 2 -66 0
57 3 72 0
-57 3 -72 0
61 -97 0
-61 97 0
-62 -98 0
-63 -99 0
-64 -100 0
-65 -101 0
61 97 -98 0
98 -61 0
98 -97 0
62 98 -99 0
99 -62 0
99 -98 0
63 99 -100 0
100 -63 0
100 -99 0
64 100 -101 0
101 -64 0
101 -100 0
65 101 -102 0
102 -65 0
102 -101 0
102 0
67 -103 0
-67 103 0
-104 -68 0
-105 -69 0
-106 -70 0
-107 -71 0
67 103 -104 0
104 -67 0
104 -103 0
68 104 -105 0
105 -68 0
105 -104 0
69 105 -106 0
106 -69 0
106 -105 0
70 106 -107 0
107 -70 0
107 -106 0
71 107 -108 0
108 -71 0
108 -107 0
108 0
4 0
38 -61 0
38 -67 0
42 -62 0
42 -68 0
46 -63 0
46 -69 0
50 -64 0
50 -70 0
54 -65 0
54 -71 0
58 -66 0
58 -72 0
8 9 0
-8 -9 0
39 -8 -61 0
-39 8 -61 0
39 9 67 0
-39 9 -67 0
43 -8 -62 0
-43 8 -62 0
43 9 68 0
-43 9 -68 0
47 -8 -63 0
-47 8 -63 0
47 9 69 0
-47 9 -69 0
51 -8 -64 0
-51 8 -64 0
51 9 70 0
-51 9 -70 0
55 -8 -65 0
-55 8 -65 0
55 9 71 0
-55 9 -71 0
59 -8 -66 0
-59 8 -66 0
59 9 72 0
-59 9 -72 0
61 -97 0
-61 97 0
-62 -98 0
-63 -99 0
-64 -100 0
-65 -101 0
61 97 -98 0
98 -61 0
98 -97 0
62 98 -99 0
99 -62 0
99 -98 0
63 99 -100 0
100 -63 0
100 -99 0
64 100 -101 0
101 -64 0
101 -100 0
65 101 -102 0
102 -65 0
102 -101 0
102 0
67 -103 0
-67 103 0
-104 -68 0
-105 -69 0
-106 -70 0
-107 -71 0
67 103 -104 0
104 -67 0
104 -103 0
68 104 -105 0
105 -68 0
105 -104 0
69 105 -106 0
106 -69 0
106 -105 0
70 106 -107 0
107 -70 0
107 -106 0
71 107 -108 0
108 -71 0
108 -107 0
108 0
-10 0
-40 -61 0
-40 -67 0
-44 -62 0
-44 -68 0
-48 -63 0
-48 -69 0
-52 -64 0
-52 -70 0
-56 -65 0
-56 -71 0
-60 -66 0
-60 -72 0
14 15 0
-14 -15 0
37 -14 -73 0
-37 14 -73 0
37 15 79 0
-37 15 -79 0
41 -14 -74 0
-41 14 -74 0
41 15 80 0
-41 15 -80 0
45 -14 -75 0
-45 14 -75 0
45 15 81 0
-45 15 -81 0
49 -14 -76 0
-49 14 -76 0
49 15 82 0
-49 15 -82 0
53 -14 -77 0
-53 14 -77 0
53 15 83 0
-53 15 -83 0
57 -14 -78 0
-57 14 -78 0
57 15 84 0
-57 15 -84 0
73 -109 0
-73 109 0
-74 -110 0
-75 -111 0
-76 -112 0
-77 -113 0
73 109 -110 0
110 -73 0
110 -109 0
74 110 -111 0
111 -74 0
111 -110 0
75 111 -112 0
112 -75 0
112 -111 0
76 112 -113 0
113 -76 0
113 -112 0
77 113 -114 0
114 -77 0
114 -113 0
114 0
79 -115 0
-79 115 0
-116 -80 0
-117 -81 0
-118 -82 0
-119 -83 0
79 115 -116 0
116 -79 0
116 -115 0
80 116 -117 0
117 -80 0
117 -116 0
81 117 -118 0
118 -81 0
118 -117 0
82 118 -119 0
119 -82 0
119 -118 0
83 119 -120 0
120 -83 0
120 -119 0
120 0
16 0
38 -73 0
38 -79 0
42 -74 0
42 -80 0
46 -75 0
46 -81 0
50 -76 0
50 -82 0
54 -77 0
54 -83 0
58 -78 0
58 -84 0
-19 0
-39 -73 0
-39 -79 0
-43 -74 0
-43 -80 0
-47 -75 0
-47 -81 0
-51 -76 0
-51 -82 0
-55 -77 0
-55 -83 0
-59 -78 0
-59 -84 0
23 24 0
-23 -24 0
40 -23 -73 0
-40 23 -73 0
40 24 79 0
-40 24 -79 0
44 -23 -74 0
-44 23 -74 0
44 24 80 0
-44 24 -80 0
48 -23 -75 0
-48 23 -75 0
48 24 81 0
-48 24 -81 0
52 -23 -76 0
-52 23 -76 0
52 24 82 0
-52 24 -82 0
56 -23 -77 0
-56 23 -77 0
56 24 83 0
-56 24 -83 0
60 -23 -78 0
-60 23 -78 0
60 24 84 0
-60 24 -84 0
73 -109 0
-73 109 0
-74 -110 0
-75 -111 0
-76 -112 0
-77 -113 0
73 109 -110 0
110 -73 0
110 -109 0
74 110 -111 0
111 -74 0
111 -110 0
75 111 -112 0
112 -75 0
112 -111 0
76 112 -113 0
113 -76 0
113 -112 0
77 113 -114 0
114 -77 0
114 -113 0
114 0
79 -115 0
-79 115 0
-116 -80 0
-117 -81 0
-118 -82 0
-119 -83 0
79 115 -116 0
116 -79 0
116 -115 0
80 116 -117 0
117 -80 0
117 -116 0
81 117 -118 0
118 -81 0
118 -117 0
82 118 -119 0
119 -82 0
119 -118 0
83 119 -120 0
120 -83 0
120 -119 0
120 0
25 0
37 -85 0
37 -91 0
41 -86 0
41 -92 0
45 -87 0
45 -93 0
49 -88 0
49 -94 0
53 -89 0
53 -95 0
57 -90 0
57 -96 0
29 30 0
-29 -30 0
38 -29 -85 0
-38 29 -85 0
38 30 91 0
-38 30 -91 0
42 -29 -86 0
-42 29 -86 0
42 30 92 0
-42 30 -92 0
46 -29 -87 0
-46 29 -87 0
46 30 93 0
-46 30 -93 0
50 -29 -88 0
-50 29 -88 0
50 30 94 0
-50 30 -94 0
54 -29 -89 0
-54 29 -89 0
54 30 95 0
-54 30 -95 0
58 -29 -90 0
-58 29 -90 0
58 30 96 0
-58 30 -96 0
85 -121 0
-85 121 0
-86 -122 0
-87 -123 0
-88 -124 0
-89 -125 0
85 121 -122 0
122 -85 0
122 -121 0
86 122 -123 0
123 -86 0
123 -122 0
87 123 -124 0
124 -87 0
124 -123 0
88 124 -125 0
125 -88 0
125 -124 0
89 125 -126 0
126 -89 0
126 -125 0
126 0
91 -127 0
-91 127 0
-128 -92 0
-129 -93 0
-130 -94 0
-131 -95 0
91 127 -128 0
128 -91 0
128 -127 0
92 128 -129 0
129 -92 0
129 -128 0
93 129 -130 0
130 -93 0
130 -129 0
94 130 -131 0
131 -94 0
131 -130 0
95 131 -132 0
132 -95 0
132 -131 0
132 0
32 33 0
-32 -33 0
39 -32 -85 0
-39 32 -85 0
39 33 91 0
-39 33 -91 0
43 -32 -86 0
-43 32 -86 0
43 33 92 0
-43 33 -92 0
47 -32 -87 0
-47 32 -87 0
47 33 93 0
-47 33 -93 0
51 -32 -88 0
-51 32 -88 0
51 33 94 0
-51 33 -94 0
55 -32 -89 0
-55 32 -89 0
55 33 95 0
-55 33 -95 0
59 -32 -90 0
-59 32 -90 0
59 33 96 0
-59 33 -96 0
85 -121 0
-85 121 0
-86 -122 0
-87 -123 0
-88 -124 0
-89 -125 0
85 121 -122 0
122 -85 0
122 -121 0
86 122 -123 0
123 -86 0
123 -122 0
87 123 -124 0
124 -87 0
124 -123 0
88 124 -125 0
125 -88 0
125 -124 0
89 125 -126 0
126 -89 0
126 -125 0
126 0
91 -127 0
-91 127 0
-128 -92 0
-129 -93 0
-130 -94 0
-131 -95 0
91 127 -128 0
128 -91 0
128 -127 0
92 128 -129 0
129 -92 0
129 -128 0
93 129 -130 0
130 -93 0
130 -129 0
94 130 -131 0
131 -94 0
131 -130 0
95 131 -132 0
132 -95 0
132 -131 0
132 0
34 0
40 -85 0
40 -91 0
44 -86 0
44 -92 0
48 -87 0
48 -93 0
52 -88 0
52 -94 0
56 -89 0
56 -95 0
60 -90 0
60 -96 0
